3
50
14319
[[400,441,259,312,717,368,961,952,689,425, 47,  9,535,342,849,141,316,583,909,254,925,518,307,615,400,834,684, 54, 67,727,734,480,193,446, 17,974,891,787,146,748,756,890,948,935,290,518,837,606,768,512],
 [600,559,741,688,283,632, 39, 48,311,575,953,991,465,658,151,859,684,417, 91,746, 75,482,693,385,600,166,316,946,933,273,266,520,807,554,983, 26,109,213,854,252,244,110, 52, 65,710,482,163,394,232,488],
 [ 36, 43, 84, 53, 71, 64,  2, 48, 11, 64, 64, 12, 14, 88, 43, 14, 57, 71, 54, 47, 34, 13, 59,  4, 62,  3, 80, 47, 72, 57, 87, 64, 67, 27, 29,  2, 57, 20, 65, 23,  3,  8, 44, 49, 19, 69, 63, 22, 49, 11]]
[301,765,946,775,809,152,897,817,217,502,136,953,277,717,891,928,659,598, 51,848,546, 88,977,886,358,198,997,729,401,675, 90,760,255,671,912,153, 22,863,295,831,952,557,913, 77,747,249, 22,920,980,275]